param set_len = 50;
param target_sum = 10996275;
param values := [1] 724619 [2] 1032038 [3] 468070 [4] 638460 [5] 947271 [6] 1042927 [7] 258688 [8] 220505 [9] 47029 [10] 62162 [11] 734330 [12] 823176 [13] 190336 [14] 995483 [15] 51213 [16] 359927 [17] 280702 [18] 350859 [19] 767650 [20] 81574 [21] 755162 [22] 436678 [23] 491982 [24] 499318 [25] 1043154 [26] 239655 [27] 786638 [28] 350746 [29] 692014 [30] 834180 [31] 784547 [32] 858938 [33] 605143 [34] 159466 [35] 486435 [36] 945954 [37] 94995 [38] 476205 [39] 305673 [40] 269599 [41] 905161 [42] 248519 [43] 113521 [44] 323817 [45] 242719 [46] 55496 [47] 70681 [48] 427414 [49] 1935 [50] 258062 ;
